
Gurobi 11.0.3 (linux64) logging started Sun Nov 24 19:14:34 2024

Set parameter LogFile to value "/home/yihong/Coding/OR_SUC/SUC_results_bigM100000_thread4/case24_ieee_rts_theta0.1_epsilon0.05_gurobi_seed1340000_num_gen100_N_WDR100_load_scaling_factor1_proposed_T12quadra_cost.txt"
Set parameter TimeLimit to value 3600
Gurobi Optimizer version 11.0.3 build v11.0.3rc0 (linux64 - "Ubuntu 20.04.6 LTS")

CPU model: AMD EPYC 7532 32-Core Processor, instruction set [SSE2|AVX|AVX2]
Thread count: 64 physical cores, 128 logical processors, using up to 4 threads

Optimize a model with 28530 rows, 14981 columns and 657050 nonzeros
Model fingerprint: 0x8da5e355
Model has 1200 quadratic constraints
Variable types: 13781 continuous, 1200 integer (1200 binary)
Coefficient statistics:
  Matrix range     [3e-04, 3e+03]
  QMatrix range    [2e-03, 8e-03]
  QLMatrix range   [5e-02, 6e+01]
  Objective range  [1e+00, 1e+00]
  Bounds range     [1e+00, 1e+00]
  RHS range        [1e+00, 9e+03]
Presolve removed 23441 rows and 6467 columns
Presolve time: 0.19s
Presolved: 5089 rows, 8514 columns, 28776 nonzeros
Presolved model has 1200 quadratic constraint(s)
Variable types: 7314 continuous, 1200 integer (1200 binary)

Root relaxation: objective 1.839205e+04, 4108 iterations, 0.09 seconds (0.12 work units)

    Nodes    |    Current Node    |     Objective Bounds      |     Work
 Expl Unexpl |  Obj  Depth IntInf | Incumbent    BestBd   Gap | It/Node Time

     0     0 18392.0476    0   12          - 18392.0476      -     -    0s
     0     0 177100.213    0  476          - 177100.213      -     -    0s
     0     0 177106.626    0  476          - 177106.626      -     -    0s
     0     0 303348.677    0  332          - 303348.677      -     -    0s
     0     0 303360.889    0  191          - 303360.889      -     -    0s
     0     0 303508.064    0   74          - 303508.064      -     -    0s
     0     0 303508.661    0   75          - 303508.661      -     -    0s
     0     0 303509.020    0   75          - 303509.020      -     -    0s
     0     0 303509.473    0   75          - 303509.473      -     -    0s
     0     2 303509.881    0   75          - 303509.881      -     -    1s
H  338   524                    303686.61190 303512.224  0.06%  11.6    2s
*  338   524              93    303686.61190 303512.224  0.06%  11.7    2s

Cutting planes:
  Gomory: 24
  Implied bound: 204
  MIR: 74
  Flow cover: 355

Explored 596 nodes (18139 simplex iterations) in 3.02 seconds (3.57 work units)
Thread count was 4 (of 128 available processors)

Solution count 2: 303687 303687 

Optimal solution found (tolerance 1.00e-03)
Warning: max constraint violation (1.4176e-07) exceeds tolerance
Best objective 3.036866119033e+05, best bound 3.035122237348e+05, gap 0.0574%
